p cnf 430 1488
-191 -165 0
-191 115 0
-191 -178 0
-191 -49 0
-191 -164 0
191 165 -115 178 49 164 0
-192 -155 0
-192 -139 0
-192 162 0
-192 -93 0
-192 -77 0
192 155 139 -162 93 77 0
-193 -113 0
-193 188 0
-193 114 0
-193 -179 0
-193 -20 0
193 113 -188 -114 179 20 0
-194 -40 0
-194 -171 0
-194 -8 0
-194 165 0
-194 -152 0
194 40 171 8 -165 152 0
-195 118 0
-195 42 0
-195 56 0
-195 114 0
-195 -142 0
195 -118 -42 -56 -114 142 0
191 192 193 194 195 0
-196 -131 0
-196 108 0
-196 -160 0
-196 -172 0
-196 -14 0
196 131 -108 160 172 14 0
-197 35 0
-197 -150 0
-197 3 0
-197 24 0
-197 -32 0
197 -35 150 -3 -24 32 0
-198 -132 0
-198 92 0
-198 -155 0
-198 44 0
-198 28 0
198 132 -92 155 -44 -28 0
-199 -80 0
-199 -124 0
-199 -118 0
-199 -73 0
-199 148 0
199 80 124 118 73 -148 0
-200 176 0
-200 175 0
-200 -17 0
-200 -189 0
-200 36 0
200 -176 -175 17 189 -36 0
196 197 198 199 200 0
-201 -127 0
-201 -93 0
-201 81 0
-201 -82 0
-201 -136 0
201 127 93 -81 82 136 0
-202 -161 0
-202 149 0
-202 -17 0
-202 -135 0
-202 127 0
202 161 -149 17 135 -127 0
-203 7 0
-203 -163 0
-203 19 0
-203 -114 0
-203 -162 0
203 -7 163 -19 114 162 0
-204 113 0
-204 50 0
-204 -137 0
-204 79 0
-204 -17 0
204 -113 -50 137 -79 17 0
-205 -186 0
-205 -3 0
-205 85 0
-205 -81 0
-205 -11 0
205 186 3 -85 81 11 0
201 202 203 204 205 0
-206 -90 0
-206 123 0
-206 -89 0
-206 66 0
-206 -29 0
206 90 -123 89 -66 29 0
-207 -106 0
-207 17 0
-207 -137 0
-207 -189 0
-207 8 0
207 106 -17 137 189 -8 0
-208 -48 0
-208 -6 0
-208 -129 0
-208 102 0
-208 -142 0
208 48 6 129 -102 142 0
-209 86 0
-209 125 0
-209 113 0
-209 56 0
-209 -116 0
209 -86 -125 -113 -56 116 0
-210 -16 0
-210 91 0
-210 -84 0
-210 37 0
-210 -4 0
210 16 -91 84 -37 4 0
206 207 208 209 210 0
-211 189 0
-211 -89 0
-211 -143 0
-211 -112 0
-211 136 0
211 -189 89 143 112 -136 0
-212 139 0
-212 134 0
-212 95 0
-212 -71 0
-212 120 0
212 -139 -134 -95 71 -120 0
-213 138 0
-213 182 0
-213 48 0
-213 38 0
-213 -99 0
213 -138 -182 -48 -38 99 0
-214 -36 0
-214 -140 0
-214 189 0
-214 -171 0
-214 27 0
214 36 140 -189 171 -27 0
-215 76 0
-215 146 0
-215 188 0
-215 -59 0
-215 126 0
215 -76 -146 -188 59 -126 0
211 212 213 214 215 0
-216 -61 0
-216 145 0
-216 -30 0
-216 171 0
-216 90 0
216 61 -145 30 -171 -90 0
-217 182 0
-217 107 0
-217 151 0
-217 163 0
-217 -173 0
217 -182 -107 -151 -163 173 0
-218 -78 0
-218 17 0
-218 187 0
-218 174 0
-218 14 0
218 78 -17 -187 -174 -14 0
-219 -63 0
-219 7 0
-219 54 0
-219 -84 0
-219 138 0
219 63 -7 -54 84 -138 0
-220 -20 0
-220 21 0
-220 -175 0
-220 13 0
-220 172 0
220 20 -21 175 -13 -172 0
216 217 218 219 220 0
-221 170 0
-221 139 0
-221 174 0
-221 105 0
-221 31 0
221 -170 -139 -174 -105 -31 0
-222 -33 0
-222 -151 0
-222 124 0
-222 -175 0
-222 -68 0
222 33 151 -124 175 68 0
-223 92 0
-223 -36 0
-223 -14 0
-223 -82 0
-223 -38 0
223 -92 36 14 82 38 0
-224 -138 0
-224 -16 0
-224 -2 0
-224 -29 0
-224 -82 0
224 138 16 2 29 82 0
-225 142 0
-225 159 0
-225 128 0
-225 121 0
-225 70 0
225 -142 -159 -128 -121 -70 0
221 222 223 224 225 0
-226 119 0
-226 93 0
-226 66 0
-226 -40 0
-226 -27 0
226 -119 -93 -66 40 27 0
-227 32 0
-227 -157 0
-227 185 0
-227 18 0
-227 25 0
227 -32 157 -185 -18 -25 0
-228 56 0
-228 -6 0
-228 -95 0
-228 165 0
-228 -157 0
228 -56 6 95 -165 157 0
-229 5 0
-229 144 0
-229 92 0
-229 44 0
-229 89 0
229 -5 -144 -92 -44 -89 0
-230 81 0
-230 160 0
-230 142 0
-230 -62 0
-230 -122 0
230 -81 -160 -142 62 122 0
226 227 228 229 230 0
-231 -48 0
-231 173 0
-231 -15 0
-231 170 0
-231 120 0
231 48 -173 15 -170 -120 0
-232 -130 0
-232 91 0
-232 96 0
-232 -76 0
-232 68 0
232 130 -91 -96 76 -68 0
-233 142 0
-233 -168 0
-233 154 0
-233 -20 0
-233 -52 0
233 -142 168 -154 20 52 0
-234 111 0
-234 -27 0
-234 -48 0
-234 159 0
-234 -115 0
234 -111 27 48 -159 115 0
-235 132 0
-235 41 0
-235 94 0
-235 52 0
-235 33 0
235 -132 -41 -94 -52 -33 0
231 232 233 234 235 0
-236 179 0
-236 79 0
-236 37 0
-236 -30 0
-236 36 0
236 -179 -79 -37 30 -36 0
-237 -89 0
-237 -74 0
-237 190 0
-237 38 0
-237 154 0
237 89 74 -190 -38 -154 0
-238 -107 0
-238 -180 0
-238 182 0
-238 -9 0
-238 -57 0
238 107 180 -182 9 57 0
-239 -41 0
-239 6 0
-239 -17 0
-239 151 0
-239 -132 0
239 41 -6 17 -151 132 0
-240 143 0
-240 -20 0
-240 156 0
-240 58 0
-240 44 0
240 -143 20 -156 -58 -44 0
236 237 238 239 240 0
-241 177 0
-241 -88 0
-241 13 0
-241 -102 0
-241 95 0
241 -177 88 -13 102 -95 0
-242 -1 0
-242 161 0
-242 187 0
-242 139 0
-242 -41 0
242 1 -161 -187 -139 41 0
-243 -127 0
-243 -179 0
-243 100 0
-243 102 0
-243 -62 0
243 127 179 -100 -102 62 0
-244 -128 0
-244 29 0
-244 41 0
-244 71 0
-244 -35 0
244 128 -29 -41 -71 35 0
-245 184 0
-245 -85 0
-245 84 0
-245 27 0
-245 163 0
245 -184 85 -84 -27 -163 0
241 242 243 244 245 0
-246 50 0
-246 -162 0
-246 -93 0
-246 -151 0
-246 -105 0
246 -50 162 93 151 105 0
-247 44 0
-247 -63 0
-247 -110 0
-247 -70 0
-247 83 0
247 -44 63 110 70 -83 0
-248 -48 0
-248 64 0
-248 102 0
-248 -126 0
-248 -27 0
248 48 -64 -102 126 27 0
-249 -153 0
-249 -95 0
-249 3 0
-249 151 0
-249 -168 0
249 153 95 -3 -151 168 0
-250 -40 0
-250 122 0
-250 154 0
-250 73 0
-250 -156 0
250 40 -122 -154 -73 156 0
246 247 248 249 250 0
-251 -8 0
-251 -140 0
-251 38 0
-251 9 0
-251 -131 0
251 8 140 -38 -9 131 0
-252 -175 0
-252 102 0
-252 -73 0
-252 54 0
-252 -171 0
252 175 -102 73 -54 171 0
-253 126 0
-253 32 0
-253 98 0
-253 -69 0
-253 156 0
253 -126 -32 -98 69 -156 0
-254 -137 0
-254 -49 0
-254 43 0
-254 129 0
-254 96 0
254 137 49 -43 -129 -96 0
-255 156 0
-255 -1 0
-255 -85 0
-255 171 0
-255 -80 0
255 -156 1 85 -171 80 0
251 252 253 254 255 0
-256 155 0
-256 9 0
-256 117 0
-256 115 0
-256 153 0
256 -155 -9 -117 -115 -153 0
-257 30 0
-257 115 0
-257 -118 0
-257 149 0
-257 -93 0
257 -30 -115 118 -149 93 0
-258 173 0
-258 -24 0
-258 178 0
-258 142 0
-258 10 0
258 -173 24 -178 -142 -10 0
-259 115 0
-259 26 0
-259 -153 0
-259 -17 0
-259 23 0
259 -115 -26 153 17 -23 0
-260 65 0
-260 66 0
-260 179 0
-260 22 0
-260 120 0
260 -65 -66 -179 -22 -120 0
256 257 258 259 260 0
-261 79 0
-261 168 0
-261 110 0
-261 190 0
-261 189 0
261 -79 -168 -110 -190 -189 0
-262 159 0
-262 -93 0
-262 86 0
-262 122 0
-262 153 0
262 -159 93 -86 -122 -153 0
-263 -53 0
-263 -153 0
-263 132 0
-263 -12 0
-263 -76 0
263 53 153 -132 12 76 0
-264 -130 0
-264 -75 0
-264 -44 0
-264 -144 0
-264 3 0
264 130 75 44 144 -3 0
-265 -69 0
-265 -19 0
-265 -28 0
-265 159 0
-265 5 0
265 69 19 28 -159 -5 0
261 262 263 264 265 0
-266 133 0
-266 188 0
-266 -26 0
-266 -158 0
-266 -184 0
266 -133 -188 26 158 184 0
-267 52 0
-267 58 0
-267 174 0
-267 2 0
-267 -64 0
267 -52 -58 -174 -2 64 0
-268 142 0
-268 -106 0
-268 128 0
-268 110 0
-268 48 0
268 -142 106 -128 -110 -48 0
-269 171 0
-269 69 0
-269 117 0
-269 -84 0
-269 109 0
269 -171 -69 -117 84 -109 0
-270 -43 0
-270 -51 0
-270 29 0
-270 -52 0
-270 -116 0
270 43 51 -29 52 116 0
266 267 268 269 270 0
-271 -85 0
-271 73 0
-271 84 0
-271 -3 0
-271 13 0
271 85 -73 -84 3 -13 0
-272 -20 0
-272 51 0
-272 -138 0
-272 -14 0
-272 -143 0
272 20 -51 138 14 143 0
-273 -161 0
-273 -28 0
-273 -11 0
-273 127 0
-273 136 0
273 161 28 11 -127 -136 0
-274 142 0
-274 112 0
-274 179 0
-274 -128 0
-274 110 0
274 -142 -112 -179 128 -110 0
-275 177 0
-275 -59 0
-275 -37 0
-275 7 0
-275 108 0
275 -177 59 37 -7 -108 0
271 272 273 274 275 0
-276 -158 0
-276 18 0
-276 108 0
-276 77 0
-276 -22 0
276 158 -18 -108 -77 22 0
-277 145 0
-277 86 0
-277 -115 0
-277 -101 0
-277 99 0
277 -145 -86 115 101 -99 0
-278 -59 0
-278 -77 0
-278 104 0
-278 93 0
-278 182 0
278 59 77 -104 -93 -182 0
-279 -113 0
-279 90 0
-279 -45 0
-279 -63 0
-279 -1 0
279 113 -90 45 63 1 0
-280 -15 0
-280 158 0
-280 -21 0
-280 -31 0
-280 -101 0
280 15 -158 21 31 101 0
276 277 278 279 280 0
-281 40 0
-281 57 0
-281 16 0
-281 -2 0
-281 -103 0
281 -40 -57 -16 2 103 0
-282 -134 0
-282 -166 0
-282 -31 0
-282 65 0
-282 62 0
282 134 166 31 -65 -62 0
-283 -69 0
-283 56 0
-283 156 0
-283 107 0
-283 176 0
283 69 -56 -156 -107 -176 0
-284 169 0
-284 -65 0
-284 26 0
-284 -97 0
-284 -15 0
284 -169 65 -26 97 15 0
-285 -108 0
-285 -13 0
-285 127 0
-285 -130 0
-285 -95 0
285 108 13 -127 130 95 0
281 282 283 284 285 0
-286 -115 0
-286 -13 0
-286 70 0
-286 -22 0
-286 130 0
286 115 13 -70 22 -130 0
-287 149 0
-287 -137 0
-287 159 0
-287 -126 0
-287 -16 0
287 -149 137 -159 126 16 0
-288 -150 0
-288 -164 0
-288 -160 0
-288 34 0
-288 -157 0
288 150 164 160 -34 157 0
-289 -80 0
-289 -11 0
-289 -52 0
-289 -167 0
-289 170 0
289 80 11 52 167 -170 0
-290 130 0
-290 -159 0
-290 37 0
-290 142 0
-290 16 0
290 -130 159 -37 -142 -16 0
286 287 288 289 290 0
-291 -167 0
-291 -66 0
-291 -11 0
-291 -67 0
-291 124 0
291 167 66 11 67 -124 0
-292 -94 0
-292 -114 0
-292 21 0
-292 100 0
-292 -33 0
292 94 114 -21 -100 33 0
-293 -112 0
-293 -49 0
-293 -91 0
-293 92 0
-293 -2 0
293 112 49 91 -92 2 0
-294 -125 0
-294 96 0
-294 -6 0
-294 99 0
-294 173 0
294 125 -96 6 -99 -173 0
-295 -155 0
-295 162 0
-295 -1 0
-295 71 0
-295 73 0
295 155 -162 1 -71 -73 0
291 292 293 294 295 0
-296 -75 0
-296 -165 0
-296 111 0
-296 72 0
-296 116 0
296 75 165 -111 -72 -116 0
-297 -85 0
-297 -39 0
-297 187 0
-297 -139 0
-297 -87 0
297 85 39 -187 139 87 0
-298 150 0
-298 5 0
-298 182 0
-298 -68 0
-298 -21 0
298 -150 -5 -182 68 21 0
-299 84 0
-299 98 0
-299 -12 0
-299 144 0
-299 -60 0
299 -84 -98 12 -144 60 0
-300 154 0
-300 -80 0
-300 -81 0
-300 -148 0
-300 -173 0
300 -154 80 81 148 173 0
296 297 298 299 300 0
-301 48 0
-301 66 0
-301 -86 0
-301 -187 0
-301 -134 0
301 -48 -66 86 187 134 0
-302 93 0
-302 -44 0
-302 165 0
-302 -103 0
-302 98 0
302 -93 44 -165 103 -98 0
-303 -166 0
-303 145 0
-303 -112 0
-303 20 0
-303 -113 0
303 166 -145 112 -20 113 0
-304 -129 0
-304 134 0
-304 24 0
-304 106 0
-304 42 0
304 129 -134 -24 -106 -42 0
-305 127 0
-305 23 0
-305 -174 0
-305 157 0
-305 -104 0
305 -127 -23 174 -157 104 0
301 302 303 304 305 0
-306 -33 0
-306 180 0
-306 -6 0
-306 -67 0
-306 136 0
306 33 -180 6 67 -136 0
-307 -150 0
-307 23 0
-307 -17 0
-307 18 0
-307 -123 0
307 150 -23 17 -18 123 0
-308 -2 0
-308 -33 0
-308 139 0
-308 84 0
-308 31 0
308 2 33 -139 -84 -31 0
-309 111 0
-309 -41 0
-309 97 0
-309 169 0
-309 80 0
309 -111 41 -97 -169 -80 0
-310 -175 0
-310 -153 0
-310 -146 0
-310 12 0
-310 -179 0
310 175 153 146 -12 179 0
306 307 308 309 310 0
-311 -131 0
-311 44 0
-311 126 0
-311 145 0
-311 -104 0
311 131 -44 -126 -145 104 0
-312 48 0
-312 -17 0
-312 92 0
-312 -132 0
-312 -145 0
312 -48 17 -92 132 145 0
-313 105 0
-313 167 0
-313 95 0
-313 -2 0
-313 -58 0
313 -105 -167 -95 2 58 0
-314 -69 0
-314 -44 0
-314 -89 0
-314 -77 0
-314 101 0
314 69 44 89 77 -101 0
-315 87 0
-315 49 0
-315 -153 0
-315 -59 0
-315 133 0
315 -87 -49 153 59 -133 0
311 312 313 314 315 0
-316 131 0
-316 88 0
-316 96 0
-316 100 0
-316 178 0
316 -131 -88 -96 -100 -178 0
-317 137 0
-317 -14 0
-317 112 0
-317 144 0
-317 145 0
317 -137 14 -112 -144 -145 0
-318 -169 0
-318 52 0
-318 -1 0
-318 59 0
-318 6 0
318 169 -52 1 -59 -6 0
-319 180 0
-319 -58 0
-319 134 0
-319 -114 0
-319 33 0
319 -180 58 -134 114 -33 0
-320 -131 0
-320 121 0
-320 134 0
-320 -24 0
-320 138 0
320 131 -121 -134 24 -138 0
316 317 318 319 320 0
-321 -90 0
-321 -159 0
-321 -70 0
-321 161 0
-321 153 0
321 90 159 70 -161 -153 0
-322 186 0
-322 26 0
-322 172 0
-322 -105 0
-322 67 0
322 -186 -26 -172 105 -67 0
-323 -47 0
-323 56 0
-323 141 0
-323 176 0
-323 140 0
323 47 -56 -141 -176 -140 0
-324 -4 0
-324 -105 0
-324 -41 0
-324 183 0
-324 144 0
324 4 105 41 -183 -144 0
-325 -26 0
-325 -89 0
-325 184 0
-325 97 0
-325 -12 0
325 26 89 -184 -97 12 0
321 322 323 324 325 0
-326 -130 0
-326 70 0
-326 73 0
-326 -85 0
-326 -190 0
326 130 -70 -73 85 190 0
-327 -101 0
-327 172 0
-327 -106 0
-327 -171 0
-327 -159 0
327 101 -172 106 171 159 0
-328 68 0
-328 181 0
-328 16 0
-328 162 0
-328 -182 0
328 -68 -181 -16 -162 182 0
-329 -147 0
-329 -104 0
-329 150 0
-329 116 0
-329 -81 0
329 147 104 -150 -116 81 0
-330 -19 0
-330 -130 0
-330 -79 0
-330 -101 0
-330 -162 0
330 19 130 79 101 162 0
326 327 328 329 330 0
-331 96 0
-331 -52 0
-331 -112 0
-331 -15 0
-331 -31 0
331 -96 52 112 15 31 0
-332 13 0
-332 112 0
-332 107 0
-332 -146 0
-332 38 0
332 -13 -112 -107 146 -38 0
-333 50 0
-333 -168 0
-333 83 0
-333 53 0
-333 -171 0
333 -50 168 -83 -53 171 0
-334 -86 0
-334 -57 0
-334 152 0
-334 -41 0
-334 11 0
334 86 57 -152 41 -11 0
-335 -117 0
-335 58 0
-335 -136 0
-335 98 0
-335 -57 0
335 117 -58 136 -98 57 0
331 332 333 334 335 0
-336 184 0
-336 -59 0
-336 -38 0
-336 -142 0
-336 -126 0
336 -184 59 38 142 126 0
-337 112 0
-337 -43 0
-337 -16 0
-337 -55 0
-337 155 0
337 -112 43 16 55 -155 0
-338 -120 0
-338 142 0
-338 96 0
-338 -1 0
-338 80 0
338 120 -142 -96 1 -80 0
-339 -185 0
-339 190 0
-339 85 0
-339 8 0
-339 170 0
339 185 -190 -85 -8 -170 0
-340 -140 0
-340 -42 0
-340 116 0
-340 -1 0
-340 -118 0
340 140 42 -116 1 118 0
336 337 338 339 340 0
-341 -41 0
-341 -148 0
-341 -119 0
-341 -107 0
-341 81 0
341 41 148 119 107 -81 0
-342 -50 0
-342 -160 0
-342 -8 0
-342 173 0
-342 -87 0
342 50 160 8 -173 87 0
-343 -121 0
-343 -25 0
-343 111 0
-343 -22 0
-343 92 0
343 121 25 -111 22 -92 0
-344 88 0
-344 115 0
-344 -63 0
-344 -125 0
-344 -43 0
344 -88 -115 63 125 43 0
-345 -171 0
-345 101 0
-345 119 0
-345 -174 0
-345 -159 0
345 171 -101 -119 174 159 0
341 342 343 344 345 0
-346 24 0
-346 -157 0
-346 189 0
-346 92 0
-346 -65 0
346 -24 157 -189 -92 65 0
-347 92 0
-347 -186 0
-347 -93 0
-347 182 0
-347 152 0
347 -92 186 93 -182 -152 0
-348 98 0
-348 70 0
-348 -48 0
-348 -99 0
-348 56 0
348 -98 -70 48 99 -56 0
-349 23 0
-349 -188 0
-349 -159 0
-349 149 0
-349 -121 0
349 -23 188 159 -149 121 0
-350 66 0
-350 123 0
-350 24 0
-350 141 0
-350 -19 0
350 -66 -123 -24 -141 19 0
346 347 348 349 350 0
-351 41 0
-351 3 0
-351 -115 0
-351 -83 0
-351 -71 0
351 -41 -3 115 83 71 0
-352 -55 0
-352 24 0
-352 31 0
-352 -150 0
-352 133 0
352 55 -24 -31 150 -133 0
-353 -61 0
-353 -87 0
-353 -29 0
-353 145 0
-353 -1 0
353 61 87 29 -145 1 0
-354 56 0
-354 86 0
-354 148 0
-354 4 0
-354 -63 0
354 -56 -86 -148 -4 63 0
-355 -9 0
-355 -104 0
-355 76 0
-355 83 0
-355 100 0
355 9 104 -76 -83 -100 0
351 352 353 354 355 0
-356 -168 0
-356 89 0
-356 -181 0
-356 -123 0
-356 76 0
356 168 -89 181 123 -76 0
-357 -177 0
-357 -4 0
-357 -18 0
-357 -33 0
-357 176 0
357 177 4 18 33 -176 0
-358 -70 0
-358 86 0
-358 -2 0
-358 -44 0
-358 130 0
358 70 -86 2 44 -130 0
-359 -157 0
-359 -137 0
-359 180 0
-359 25 0
-359 158 0
359 157 137 -180 -25 -158 0
-360 120 0
-360 55 0
-360 80 0
-360 -30 0
-360 -74 0
360 -120 -55 -80 30 74 0
356 357 358 359 360 0
-361 -39 0
-361 -1 0
-361 14 0
-361 -24 0
-361 87 0
361 39 1 -14 24 -87 0
-362 163 0
-362 -14 0
-362 105 0
-362 -120 0
-362 -148 0
362 -163 14 -105 120 148 0
-363 106 0
-363 -48 0
-363 21 0
-363 -141 0
-363 147 0
363 -106 48 -21 141 -147 0
-364 151 0
-364 -179 0
-364 149 0
-364 -33 0
-364 18 0
364 -151 179 -149 33 -18 0
-365 174 0
-365 69 0
-365 118 0
-365 -56 0
-365 153 0
365 -174 -69 -118 56 -153 0
361 362 363 364 365 0
-366 -51 0
-366 -177 0
-366 -28 0
-366 135 0
-366 -79 0
366 51 177 28 -135 79 0
-367 61 0
-367 -70 0
-367 -146 0
-367 -101 0
-367 -123 0
367 -61 70 146 101 123 0
-368 -107 0
-368 188 0
-368 -106 0
-368 163 0
-368 -118 0
368 107 -188 106 -163 118 0
-369 63 0
-369 71 0
-369 -170 0
-369 186 0
-369 -38 0
369 -63 -71 170 -186 38 0
-370 3 0
-370 34 0
-370 -76 0
-370 -183 0
-370 53 0
370 -3 -34 76 183 -53 0
366 367 368 369 370 0
-371 134 0
-371 -77 0
-371 165 0
-371 178 0
-371 94 0
371 -134 77 -165 -178 -94 0
-372 128 0
-372 141 0
-372 -21 0
-372 115 0
-372 26 0
372 -128 -141 21 -115 -26 0
-373 184 0
-373 -117 0
-373 35 0
-373 -56 0
-373 -186 0
373 -184 117 -35 56 186 0
-374 88 0
-374 -116 0
-374 124 0
-374 98 0
-374 171 0
374 -88 116 -124 -98 -171 0
-375 -92 0
-375 -40 0
-375 -95 0
-375 149 0
-375 152 0
375 92 40 95 -149 -152 0
371 372 373 374 375 0
-376 -30 0
-376 120 0
-376 -70 0
-376 -48 0
-376 101 0
376 30 -120 70 48 -101 0
-377 -159 0
-377 187 0
-377 -100 0
-377 23 0
-377 97 0
377 159 -187 100 -23 -97 0
-378 -85 0
-378 104 0
-378 26 0
-378 -108 0
-378 33 0
378 85 -104 -26 108 -33 0
-379 121 0
-379 -181 0
-379 159 0
-379 14 0
-379 136 0
379 -121 181 -159 -14 -136 0
-380 -115 0
-380 38 0
-380 -129 0
-380 5 0
-380 158 0
380 115 -38 129 -5 -158 0
376 377 378 379 380 0
-381 72 0
-381 14 0
-381 -126 0
-381 -40 0
-381 -32 0
381 -72 -14 126 40 32 0
-382 -181 0
-382 -22 0
-382 -182 0
-382 100 0
-382 -155 0
382 181 22 182 -100 155 0
-383 140 0
-383 -114 0
-383 38 0
-383 40 0
-383 -56 0
383 -140 114 -38 -40 56 0
-384 64 0
-384 -43 0
-384 -19 0
-384 13 0
-384 -72 0
384 -64 43 19 -13 72 0
-385 -184 0
-385 1 0
-385 -25 0
-385 153 0
-385 -3 0
385 184 -1 25 -153 3 0
381 382 383 384 385 0
-386 96 0
-386 -84 0
-386 35 0
-386 -3 0
-386 -88 0
386 -96 84 -35 3 88 0
-387 174 0
-387 -26 0
-387 161 0
-387 -44 0
-387 -119 0
387 -174 26 -161 44 119 0
-388 125 0
-388 -52 0
-388 -17 0
-388 188 0
-388 -145 0
388 -125 52 17 -188 145 0
-389 5 0
-389 -156 0
-389 2 0
-389 72 0
-389 147 0
389 -5 156 -2 -72 -147 0
-390 -112 0
-390 -168 0
-390 -31 0
-390 151 0
-390 103 0
390 112 168 31 -151 -103 0
386 387 388 389 390 0
-391 -37 0
-391 -62 0
-391 1 0
-391 -128 0
-391 13 0
391 37 62 -1 128 -13 0
-392 -160 0
-392 183 0
-392 -173 0
-392 74 0
-392 -134 0
392 160 -183 173 -74 134 0
-393 -61 0
-393 -114 0
-393 -34 0
-393 -80 0
-393 177 0
393 61 114 34 80 -177 0
-394 136 0
-394 -78 0
-394 188 0
-394 -43 0
-394 160 0
394 -136 78 -188 43 -160 0
-395 -9 0
-395 -162 0
-395 -149 0
-395 189 0
-395 -33 0
395 9 162 149 -189 33 0
391 392 393 394 395 0
-396 -137 0
-396 -5 0
-396 -59 0
-396 66 0
-396 176 0
396 137 5 59 -66 -176 0
-397 -37 0
-397 185 0
-397 -16 0
-397 140 0
-397 -100 0
397 37 -185 16 -140 100 0
-398 -185 0
-398 -87 0
-398 -12 0
-398 -123 0
-398 -43 0
398 185 87 12 123 43 0
-399 57 0
-399 114 0
-399 -4 0
-399 13 0
-399 71 0
399 -57 -114 4 -13 -71 0
-400 18 0
-400 154 0
-400 140 0
-400 135 0
-400 81 0
400 -18 -154 -140 -135 -81 0
396 397 398 399 400 0
-401 -71 0
-401 21 0
-401 -126 0
-401 178 0
-401 -88 0
401 71 -21 126 -178 88 0
-402 184 0
-402 101 0
-402 23 0
-402 157 0
-402 -50 0
402 -184 -101 -23 -157 50 0
-403 -26 0
-403 -7 0
-403 108 0
-403 37 0
-403 120 0
403 26 7 -108 -37 -120 0
-404 -7 0
-404 -5 0
-404 107 0
-404 -77 0
-404 -50 0
404 7 5 -107 77 50 0
-405 -184 0
-405 -26 0
-405 -100 0
-405 -154 0
-405 47 0
405 184 26 100 154 -47 0
401 402 403 404 405 0
-406 -47 0
-406 21 0
-406 -52 0
-406 3 0
-406 80 0
406 47 -21 52 -3 -80 0
-407 134 0
-407 17 0
-407 -148 0
-407 189 0
-407 172 0
407 -134 -17 148 -189 -172 0
-408 -97 0
-408 88 0
-408 5 0
-408 148 0
-408 -134 0
408 97 -88 -5 -148 134 0
-409 107 0
-409 4 0
-409 39 0
-409 167 0
-409 -70 0
409 -107 -4 -39 -167 70 0
-410 -82 0
-410 -55 0
-410 59 0
-410 -134 0
-410 112 0
410 82 55 -59 134 -112 0
406 407 408 409 410 0
-411 -111 0
-411 -104 0
-411 138 0
-411 3 0
-411 45 0
411 111 104 -138 -3 -45 0
-412 -1 0
-412 144 0
-412 122 0
-412 -165 0
-412 -175 0
412 1 -144 -122 165 175 0
-413 29 0
-413 65 0
-413 110 0
-413 126 0
-413 -174 0
413 -29 -65 -110 -126 174 0
-414 -86 0
-414 -40 0
-414 -10 0
-414 -12 0
-414 35 0
414 86 40 10 12 -35 0
-415 42 0
-415 -75 0
-415 -138 0
-415 -34 0
-415 29 0
415 -42 75 138 34 -29 0
411 412 413 414 415 0
-416 114 0
-416 140 0
-416 -80 0
-416 -64 0
-416 40 0
416 -114 -140 80 64 -40 0
-417 140 0
-417 32 0
-417 138 0
-417 -62 0
-417 173 0
417 -140 -32 -138 62 -173 0
-418 -27 0
-418 -90 0
-418 96 0
-418 37 0
-418 -150 0
418 27 90 -96 -37 150 0
-419 -50 0
-419 71 0
-419 91 0
-419 157 0
-419 -85 0
419 50 -71 -91 -157 85 0
-420 -82 0
-420 147 0
-420 -12 0
-420 -188 0
-420 39 0
420 82 -147 12 188 -39 0
416 417 418 419 420 0
-421 -46 0
-421 -23 0
-421 55 0
-421 -42 0
-421 -184 0
421 46 23 -55 42 184 0
-422 -15 0
-422 126 0
-422 10 0
-422 -184 0
-422 -144 0
422 15 -126 -10 184 144 0
-423 -118 0
-423 -124 0
-423 57 0
-423 -127 0
-423 -36 0
423 118 124 -57 127 36 0
-424 31 0
-424 -127 0
-424 -10 0
-424 -25 0
-424 -29 0
424 -31 127 10 25 29 0
-425 100 0
-425 -28 0
-425 168 0
-425 114 0
-425 -166 0
425 -100 28 -168 -114 166 0
421 422 423 424 425 0
-426 -121 0
-426 128 0
-426 -161 0
-426 -156 0
-426 -12 0
426 121 -128 161 156 12 0
-427 19 0
-427 182 0
-427 -101 0
-427 54 0
-427 91 0
427 -19 -182 101 -54 -91 0
-428 162 0
-428 -54 0
-428 -3 0
-428 -116 0
-428 81 0
428 -162 54 3 116 -81 0
-429 -122 0
-429 -97 0
-429 -119 0
-429 18 0
-429 53 0
429 122 97 119 -18 -53 0
-430 -186 0
-430 -34 0
-430 82 0
-430 -80 0
-430 -86 0
430 186 34 -82 80 86 0
426 427 428 429 430 0
